NAME : E-n76-k10.567142.tour
COMMENT : Length = 567142
COMMENT : Found by LKH [Keld Helsgaun] Sun Dec 17 21:59:18 2017
TYPE : TOUR
DIMENSION : 85
TOUR_SECTION
1
13
40
73
59
11
39
66
32
78
27
8
36
54
12
67
85
52
17
64
24
50
25
19
51
26
56
77
76
47
9
20
15
60
81
69
3
75
29
63
23
65
79
18
41
10
33
45
4
84
7
34
74
2
44
43
42
57
80
46
30
6
38
21
71
61
72
37
70
83
5
31
49
48
22
62
82
68
35
53
28
16
58
14
55
-1
EOF
